AMPL/AggrProd.out
Aggregate Production Results
~~~~~~~~~~~~~~~~~~~~~~~~~~~~~~
Optimal Plan				 solved
~~~~~~~~~~~~~~~~~~~~~~~~~~~~~~
Total cost in 12 periods:   1221060 Euro



t	Prod
	Regular 	Overtime 	External 
1	118000		0		0		
2	144000		0		0		
3	248000		0		0		
4	248000		0		0		
5	252000		0		0		
6	252000		0		0		
7	248000		0		0		
8	26000		0		0		
9	28000		0		0		
10	124000		0		0		
11	124000		0		0		
12	100000		0		0		


t	Inv	Demand	Staff	Hire	Layoff	Unused
1	78000	70000	30	0	0	2000
2	72000	150000	36	6	0	0
3	0	320000	62	26	0	0
4	148000	100000	62	0	0	0
5	100000	300000	63	1	0	0
6	2000	350000	63	0	0	0
7	0	250000	62	0	1	0
8	24000	2000	7	0	55	2000
9	2000	50000	7	0	0	0
10	6000	120000	31	24	0	0
11	0	130000	31	0	0	0
12	0	100000	25	0	6	0


~~~~~~~~~~~~~~~~~~~~~~~~~~~~~~
 Level Plan			 solved
~~~~~~~~~~~~~~~~~~~~~~~~~~~~~~
Total cost in 12 periods:   1665920 Euro



t	Prod
	Regular 	Overtime 	External 
1	214000		0		0		
2	216000		0		0		
3	216000		0		0		
4	216000		0		0		
5	216000		0		0		
6	216000		0		0		
7	216000		0		0		
8	2000		0		0		
9	50000		0		0		
10	120000		0		0		
11	130000		0		0		
12	100000		0		0		


t	Inv	Demand	Staff	Hire	Layoff	Unused
1	174000	70000	54	24	0	2000
2	240000	150000	54	0	0	0
3	136000	320000	54	0	0	0
4	252000	100000	54	0	0	0
5	168000	300000	54	0	0	0
6	34000	350000	54	0	0	0
7	0	250000	54	0	0	0
8	0	2000	54	0	0	214000
9	0	50000	54	0	0	166000
10	0	120000	54	0	0	96000
11	0	130000	54	0	0	86000
12	0	100000	54	0	0	116000


~~~~~~~~~~~~~~~~~~~~~~~~~~~~~~
 Chase  Plan			 solved
~~~~~~~~~~~~~~~~~~~~~~~~~~~~~~
Total cost in 12 periods:   1281100 Euro



t	Prod
	Regular 	Overtime 	External 
1	40000		0		0		
2	150000		0		0		
3	320000		0		0		
4	100000		0		0		
5	300000		0		0		
6	350000		0		0		
7	250000		0		0		
8	2000		0		0		
9	50000		0		0		
10	120000		0		0		
11	130000		0		0		
12	100000		0		0		


t	Inv	Demand	Staff	Hire	Layoff	Unused
1	0	70000	18	0	12	32000
2	0	150000	38	20	0	2000
3	0	320000	80	42	0	0
4	0	100000	25	0	55	0
5	0	300000	75	50	0	0
6	0	350000	88	13	0	2000
7	0	250000	63	0	25	2000
8	0	2000	1	0	62	2000
9	0	50000	13	12	0	2000
10	0	120000	30	17	0	0
11	0	130000	33	3	0	2000
12	0	100000	25	0	8	0


